NAME          
ROWS
 N  OBJ
 L  c1
 L  c2
COLUMNS
    MARKER    'MARKER'                 'INTORG'
    x[1]      c1        754
    x[1]      c2        823
    x[1]      OBJ       -942
    x[2]      c1        342
    x[2]      c2        644
    x[2]      OBJ       -899
    x[3]      c1        544
    x[3]      c2        605
    x[3]      OBJ       -967
    x[4]      c1        895
    x[4]      c2        970
    x[4]      OBJ       -944
    x[5]      c1        871
    x[5]      c2        107
    x[5]      OBJ       -349
    x[6]      c1        632
    x[6]      c2        845
    x[6]      OBJ       -502
    x[7]      c1        320
    x[7]      c2        54
    x[7]      OBJ       -292
    x[8]      c1        221
    x[8]      c2        566
    x[8]      OBJ       -788
    x[9]      c1        408
    x[9]      c2        94
    x[9]      OBJ       -869
    x[10]     c1        661
    x[10]     c2        748
    x[10]     OBJ       -798
    x[11]     c1        770
    x[11]     c2        818
    x[11]     OBJ       -281
    x[12]     c1        29
    x[12]     c2        248
    x[12]     OBJ       -369
    x[13]     c1        267
    x[13]     c2        682
    x[13]     OBJ       -365
    x[14]     c1        629
    x[14]     c2        501
    x[14]     OBJ       -373
    x[15]     c1        818
    x[15]     c2        535
    x[15]     OBJ       -783
    x[16]     c1        636
    x[16]     c2        598
    x[16]     OBJ       -313
    x[17]     c1        334
    x[17]     c2        103
    x[17]     OBJ       -30
    x[18]     c1        532
    x[18]     c2        10
    x[18]     OBJ       -468
    x[19]     c1        712
    x[19]     c2        470
    x[19]     OBJ       -44
    x[20]     c1        30
    x[20]     c2        885
    x[20]     OBJ       -617
RHS
    rhs       c1        5202
    rhs       c2        5153
RANGES
BOUNDS
 BV bounds    x[1]
 BV bounds    x[2]
 BV bounds    x[3]
 BV bounds    x[4]
 BV bounds    x[5]
 BV bounds    x[6]
 BV bounds    x[7]
 BV bounds    x[8]
 BV bounds    x[9]
 BV bounds    x[10]
 BV bounds    x[11]
 BV bounds    x[12]
 BV bounds    x[13]
 BV bounds    x[14]
 BV bounds    x[15]
 BV bounds    x[16]
 BV bounds    x[17]
 BV bounds    x[18]
 BV bounds    x[19]
 BV bounds    x[20]
ENDATA
